(set-logic QF_UF)
(declare-fun A0 () Bool)
(declare-fun A1 () Bool)
(declare-fun A2 () Bool)
(declare-fun A3 () Bool)
(declare-fun A4 () Bool)
(declare-fun A5 () Bool)
(declare-fun A6 () Bool)
(declare-fun A7 () Bool)
(declare-fun A8 () Bool)
(declare-fun A9 () Bool)
(declare-fun A10 () Bool)
(declare-fun A11 () Bool)
(declare-fun A12 () Bool)
(declare-fun A13 () Bool)
(declare-fun A14 () Bool)
(declare-fun A15 () Bool)
(declare-fun A16 () Bool)
(declare-fun A17 () Bool)
(declare-fun A18 () Bool)
(declare-fun A19 () Bool)
(declare-fun A20 () Bool)
(declare-fun A21 () Bool)
(declare-fun A22 () Bool)
(declare-fun A23 () Bool)
(declare-fun A24 () Bool)
(assert (let ((.def_0 (and A20 A7))) (let ((.def_1 (not A10))) (let ((.def_2 (and .def_1 A12))) (let ((.def_3 (and .def_2 .def_0))) (let ((.def_4 (not A4))) (let ((.def_5 (and .def_4 A23))) (let ((.def_6 (not A20))) (let ((.def_7 (or A19 .def_6))) (let ((.def_8 (not .def_7))) (let ((.def_9 (or .def_8 .def_5))) (let ((.def_10 (not .def_9))) (let ((.def_11 (and .def_10 .def_3))) (let ((.def_12 (not .def_11))) (let ((.def_13 (not A6))) (let ((.def_14 (and A17 .def_13))) (let ((.def_15 (not A24))) (let ((.def_16 (or .def_15 A12))) (let ((.def_17 (not .def_16))) (let ((.def_18 (and .def_17 .def_14))) (let ((.def_19 (not A14))) (let ((.def_20 (not A21))) (let ((.def_21 (or .def_20 .def_19))) (let ((.def_22 (not .def_21))) (let ((.def_23 (and .def_15 A9))) (let ((.def_24 (not .def_23))) (let ((.def_25 (and .def_24 .def_22))) (let ((.def_26 (not .def_25))) (let ((.def_27 (or .def_26 .def_18))) (let ((.def_28 (not .def_27))) (let ((.def_29 (and .def_28 .def_12))) (let ((.def_30 (not A12))) (let ((.def_31 (or .def_30 A17))) (let ((.def_32 (not .def_31))) (let ((.def_33 (not A3))) (let ((.def_34 (or A21 .def_33))) (let ((.def_35 (or .def_34 .def_32))) (let ((.def_36 (not .def_35))) (let ((.def_37 (and .def_30 A16))) (let ((.def_38 (not .def_37))) (let ((.def_39 (and A3 A14))) (let ((.def_40 (not .def_39))) (let ((.def_41 (and .def_40 .def_38))) (let ((.def_42 (not .def_41))) (let ((.def_43 (or .def_42 .def_36))) (let ((.def_44 (and A2 A13))) (let ((.def_45 (not A0))) (let ((.def_46 (and .def_45 .def_19))) (let ((.def_47 (= .def_46 .def_44))) (let ((.def_48 (or .def_13 A6))) (let ((.def_49 (not A18))) (let ((.def_50 (or .def_20 .def_49))) (let ((.def_51 (and .def_50 .def_48))) (let ((.def_52 (not .def_51))) (let ((.def_53 (and .def_52 .def_47))) (let ((.def_54 (not .def_53))) (let ((.def_55 (= .def_54 .def_43))) (let ((.def_56 (and .def_55 .def_29))) (let ((.def_57 (not .def_56))) (let ((.def_58 (not A23))) (let ((.def_59 (or .def_58 A17))) (let ((.def_60 (not A2))) (let ((.def_61 (= .def_60 A9))) (let ((.def_62 (or .def_61 .def_59))) (let ((.def_63 (or A20 .def_30))) (let ((.def_64 (not .def_63))) (let ((.def_65 (not A5))) (let ((.def_66 (not A19))) (let ((.def_67 (or .def_66 .def_65))) (let ((.def_68 (and .def_67 .def_64))) (let ((.def_69 (or .def_68 .def_62))) (let ((.def_70 (not A22))) (let ((.def_71 (and .def_45 .def_70))) (let ((.def_72 (not .def_71))) (let ((.def_73 (not A15))) (let ((.def_74 (or A1 .def_73))) (let ((.def_75 (or .def_74 .def_72))) (let ((.def_76 (not A1))) (let ((.def_77 (and .def_76 A23))) (let ((.def_78 (not A7))) (let ((.def_79 (and A19 .def_78))) (let ((.def_80 (not .def_79))) (let ((.def_81 (and .def_80 .def_77))) (let ((.def_82 (or .def_81 .def_75))) (let ((.def_83 (= .def_82 .def_69))) (let ((.def_84 (not .def_83))) (let ((.def_85 (not A11))) (let ((.def_86 (or .def_85 .def_78))) (let ((.def_87 (not .def_86))) (let ((.def_88 (or .def_30 A6))) (let ((.def_89 (or .def_88 .def_87))) (let ((.def_90 (not .def_89))) (let ((.def_91 (and A14 A19))) (let ((.def_92 (or A21 .def_19))) (let ((.def_93 (not .def_92))) (let ((.def_94 (and .def_93 .def_91))) (let ((.def_95 (not .def_94))) (let ((.def_96 (or .def_95 .def_90))) (let ((.def_97 (not .def_96))) (let ((.def_98 (and .def_1 .def_58))) (let ((.def_99 (and .def_19 A23))) (let ((.def_100 (not .def_99))) (let ((.def_101 (or .def_100 .def_98))) (let ((.def_102 (not .def_101))) (let ((.def_103 (and A12 A14))) (let ((.def_104 (and A8 A15))) (let ((.def_105 (and .def_104 .def_103))) (let ((.def_106 (not .def_105))) (let ((.def_107 (and .def_106 .def_102))) (let ((.def_108 (not .def_107))) (let ((.def_109 (or .def_108 .def_97))) (let ((.def_110 (and .def_109 .def_84))) (let ((.def_111 (not .def_110))) (let ((.def_112 (and .def_111 .def_57))) (let ((.def_113 (not .def_112))) .def_113)))))))))))))))))))))))))))))))))))))))))))))))))))))))))))))))))))))))))))))))))))))))))))))))))))))))))))))))))))
(check-sat)
